5 6 56
3 2 1 4 1 4 2 4 24 24 40 40 56 
3 1 1 1 2 1 3 20 29 29 45 45 55 
4 3 1 3 2 3 3 5 2 8 20 20 27 27 41 41 55 
3 5 1 2 2 2 3 16 27 27 35 35 52 
5 3 1 1 1 1 1 5 2 5 2 0 8 8 14 14 20 23 27 27 39 
6 2 1 5 1 5 1 4 1 4 1 2 2 0 4 4 10 10 16 16 20 20 24 24 26 
